10J3M/DAT/10J3MNNX-16.dat
10 3
35.3206 5.9431
26.6452 5.1619
26.5236 5.1501
31.0911 5.5759
25.3494 5.0348
24.4448 4.9442
28.25 5.3151
23.3794 4.8352
28.3845 5.3277
24.763 4.9762
52.2642