10J3M/SOL/10J3MNNX-16.sol
solution status: optimal solution found
objective value:                     91.3838666666666
x#1#1                               0.377673840950229 	(obj:0)
x#1#3                               0.622326159049771 	(obj:0)
x#2#2                               0.627425077187135 	(obj:0)
x#2#3                               0.372574922812865 	(obj:0)
x#3#2                                               1 	(obj:0)
x#4#3                                               1 	(obj:0)
x#5#1                                               1 	(obj:0)
x#6#1                                               1 	(obj:0)
x#7#1                                               1 	(obj:0)
x#8#2                                               1 	(obj:0)
x#9#3                                               1 	(obj:0)
x#10#2                                              1 	(obj:0)
z                                    91.3838666666666 	(obj:1)
